108
0 50 10 25 46 61 81 70 78 32 
68 15 62 92 95 84 79 33 47 41 
96 99 39 69 7 89 44 36 97 74 
16 17 85 65 45 19 102 93 63 72 
75 83 86 30 73 53 94 98 100 23 
42 64 9 105 2 31 28 13 20 91 
29 43 76 51 27 82 104 35 66 5 
67 54 71 90 14 87 57 48 77 38 
80 107 6 18 88 40 55 26 34 103 
8 3 49 60 24 101 59 56 11 12 
21 52 1 4 58 22 37 106 
